
******************************************************************************
This program contains Ipopt, a library for large-scale nonlinear optimization.
 Ipopt is released as open source code under the Eclipse Public License (EPL).
         For more information visit http://projects.coin-or.org/Ipopt
******************************************************************************

This is Ipopt version 3.12.6, running with linear solver ma57.

Number of nonzeros in equality constraint Jacobian...:        0
Number of nonzeros in inequality constraint Jacobian.:        0
Number of nonzeros in Lagrangian Hessian.............:    19701

Total number of variables............................:     5002
                     variables with only lower bounds:     5002
                variables with lower and upper bounds:        0
                     variables with only upper bounds:        0
Total number of equality constraints.................:        0
Total number of inequality constraints...............:        0
        inequality constraints with only lower bounds:        0
   inequality constraints with lower and upper bounds:        0
        inequality constraints with only upper bounds:        0

iter    objective    inf_pr   inf_du lg(mu)  ||d||  lg(rg) alpha_du alpha_pr  ls
   0  2.5821882e+00 0.00e+00 1.02e+00  -1.0 0.00e+00    -  0.00e+00 0.00e+00   0
   1  2.8873550e+00 0.00e+00 7.10e-02  -1.0 1.10e-01    -  9.77e-01 1.00e+00f  1
   2  3.0993034e+00 0.00e+00 3.63e-02  -2.5 2.35e-01    -  8.39e-01 1.00e+00f  1
   3  5.1430057e+00 0.00e+00 5.06e-02  -2.5 8.16e-01    -  5.02e-01 1.00e+00f  1
   4  1.1319930e+01 0.00e+00 4.82e-02  -2.5 2.98e+00    -  1.44e-01 1.00e+00f  1
   5  9.7344058e+00 0.00e+00 5.13e-02  -2.5 6.84e+01    -  6.82e-02 4.93e-02f  1
   6  9.8107847e+00 0.00e+00 5.09e-02  -2.5 7.71e+01    -  7.72e-03 3.37e-02f  2
   7  8.2405091e+00 0.00e+00 4.87e-02  -2.5 2.80e+02    -  2.00e-02 6.95e-03f  2
   8  8.3791057e+00 0.00e+00 4.60e-02  -2.5 3.57e+01    -  5.49e-02 4.38e-02f  5
   9  8.2161267e+00 0.00e+00 5.85e-02  -2.5 3.14e+02    -  3.22e-01 5.62e-03f  2
iter    objective    inf_pr   inf_du lg(mu)  ||d||  lg(rg) alpha_du alpha_pr  ls
  10  8.4596662e+00 0.00e+00 4.75e-02  -2.5 1.86e+01    -  1.34e-01 8.57e-02f  3
  11  8.3602517e+00 0.00e+00 5.23e-02  -2.5 1.93e+02    -  9.92e-02 8.68e-03f  2
  12  8.3064988e+00 0.00e+00 5.16e-02  -2.5 1.63e+02    -  1.26e-02 7.81e-03f  8
  13  8.2701519e+00 0.00e+00 5.81e-02  -2.5 2.68e+02    -  5.37e-01 2.75e-03f  3
  14  1.0025895e+01 0.00e+00 4.87e-02  -2.5 1.85e+01    -  1.44e-01 2.50e-01f  3
  15  1.0028854e+01 0.00e+00 1.37e-01  -2.5 3.32e+02    -  6.97e-01 2.06e-02f  1
  16  1.2108059e+01 0.00e+00 1.46e-01  -2.5 3.32e+01    -  7.90e-03 5.00e-01f  2
  17  1.1996697e+01 0.00e+00 5.13e-02  -2.5 1.50e+02    -  3.28e-01 3.59e-02f  1
  18  1.2176292e+01 0.00e+00 5.02e-02  -2.5 4.98e+01    -  3.18e-03 1.36e-01f  3
  19  1.2093204e+01 0.00e+00 5.77e-02  -2.5 7.04e+02    -  3.25e-01 1.16e-03f  4
iter    objective    inf_pr   inf_du lg(mu)  ||d||  lg(rg) alpha_du alpha_pr  ls
  20  1.1912753e+01 0.00e+00 5.29e-02  -2.5 7.41e+01    -  7.34e-02 1.12e-02f  6
  21  1.4583062e+01 0.00e+00 5.14e-02  -2.5 7.99e+01    -  8.49e-01 1.00e+00f  1
  22  1.4565873e+01 0.00e+00 5.09e-02  -2.5 5.27e+02    -  5.18e-02 1.21e-02f  5
  23  1.4521612e+01 0.00e+00 5.10e-02  -2.5 5.56e+02    -  1.43e-01 2.33e-03f  4
  24  1.4517690e+01 0.00e+00 5.07e-02  -2.5 6.48e+02    -  1.00e+00 3.12e-02f  6
  25  1.4541849e+01 0.00e+00 5.35e-02  -2.5 9.99e+04    -  1.00e+00 4.31e-02f  4
  26  1.4528265e+01 0.00e+00 5.14e-02  -2.5 9.56e+04    -  4.53e-02 7.81e-03f  8
  27  1.4523007e+01 0.00e+00 5.59e-02  -2.5 9.48e+04    -  1.00e+00 4.36e-03f  4
  28  1.4517049e+01 0.00e+00 5.14e-02  -2.5 9.44e+04    -  1.02e-01 1.56e-02f  7
  29  1.4504216e+01 0.00e+00 4.90e-02  -2.5 9.29e+04    -  1.00e+00 2.26e-03f  5
iter    objective    inf_pr   inf_du lg(mu)  ||d||  lg(rg) alpha_du alpha_pr  ls
  30  1.4564803e+01 0.00e+00 5.22e-02  -2.5 9.27e+04    -  1.00e+00 5.00e-01f  2
  31  1.4553711e+01 0.00e+00 5.10e-02  -2.5 4.64e+04    -  3.68e-02 3.91e-03f  9
  32  1.4809784e+01 0.00e+00 5.21e-02  -2.5 4.62e+04    -  1.00e+00 7.13e-01w  1
  33  1.4472907e+01 0.00e+00 5.14e-02  -2.5 1.32e+04    -  1.25e-02 1.00e+00w  1
  34  1.4627589e+01 0.00e+00 5.19e-02  -2.5 3.92e+02    -  6.29e-01 1.35e-02w  1
  35  1.4551677e+01 0.00e+00 4.89e-02  -2.5 8.59e+00    -  1.00e+00 2.23e-02f  5
  36  1.4565254e+01 0.00e+00 4.81e-02  -2.5 4.51e+04    -  1.00e+00 2.50e-01f  3
  37  1.4576287e+01 0.00e+00 5.05e-02  -2.5 3.39e+04    -  1.00e+00 2.50e-01f  3
  38  1.4580131e+01 0.00e+00 4.92e-02  -2.5 2.54e+04    -  1.00e+00 1.25e-01f  4
  39  1.4583418e+01 0.00e+00 5.02e-02  -2.5 2.22e+04    -  1.00e+00 1.25e-01f  4
iter    objective    inf_pr   inf_du lg(mu)  ||d||  lg(rg) alpha_du alpha_pr  ls
  40  1.4585629e+01 0.00e+00 4.62e-02  -2.5 1.94e+04    -  1.00e+00 1.25e-01f  4
  41  1.4590252e+01 0.00e+00 2.96e-02  -2.5 1.70e+04    -  1.00e+00 2.50e-01f  3
  42  1.4606268e+01 0.00e+00 7.80e-03  -2.5 1.28e+04    -  1.00e+00 1.00e+00f  1
  43  3.4316107e+00 0.00e+00 3.93e-02  -3.8 3.59e+00    -  1.00e+00 8.99e-01f  1
  44  3.2111250e+00 0.00e+00 4.00e-02  -3.8 3.67e+00    -  1.30e-01 1.25e-01f  4
  45  3.0383710e+00 0.00e+00 4.25e-02  -3.8 1.85e+01    -  1.00e+00 1.43e-02f  3
  46  3.0174690e+00 0.00e+00 4.03e-02  -3.8 2.18e+00    -  2.79e-01 1.25e-01f  4
  47  2.9327287e+00 0.00e+00 4.49e-02  -3.8 1.71e+01    -  1.00e+00 1.63e-02f  3
  48  2.8895759e+00 0.00e+00 4.26e-02  -3.8 1.57e+00    -  3.62e-01 1.25e-01f  4
  49  2.8768168e+00 0.00e+00 4.43e-02  -3.8 2.94e+00    -  1.00e+00 8.78e-02f  3
iter    objective    inf_pr   inf_du lg(mu)  ||d||  lg(rg) alpha_du alpha_pr  ls
  50  2.8653731e+00 0.00e+00 4.49e-02  -3.8 9.06e+00    -  8.80e-02 3.12e-02f  6
  51  2.8566854e+00 0.00e+00 4.58e-02  -3.8 4.31e+00    -  1.00e+00 6.13e-02f  3
  52  2.8450651e+00 0.00e+00 4.49e-02  -3.8 5.81e+00    -  1.43e-01 3.12e-02f  6
  53  2.7900831e+00 0.00e+00 4.70e-02  -3.8 3.32e-01    -  1.00e+00 1.00e+00f  1
  54  2.7763976e+00 0.00e+00 4.68e-02  -3.8 5.33e+01    -  1.21e-02 7.81e-03f  8
  55  2.7757149e+00 0.00e+00 4.73e-02  -3.8 6.06e+00    -  1.00e+00 4.37e-02f  3
  56  2.7698343e+00 0.00e+00 4.84e-02  -3.8 6.99e+00    -  1.18e-01 3.12e-02f  6
  57  2.7661472e+00 0.00e+00 4.89e-02  -3.8 1.55e+00    -  1.00e+00 8.17e-02f  4
  58  2.7641022e+00 0.00e+00 5.07e-02  -3.8 5.51e-01    -  1.00e+00 2.50e-01f  3
  59  2.7615680e+00 0.00e+00 4.90e-02  -3.8 3.11e+00    -  1.00e+00 4.11e-02f  4
iter    objective    inf_pr   inf_du lg(mu)  ||d||  lg(rg) alpha_du alpha_pr  ls
  60  2.7602897e+00 0.00e+00 4.94e-02  -3.8 3.65e-01    -  1.00e+00 2.50e-01f  3
  61  2.7585566e+00 0.00e+00 4.38e-02  -3.8 5.82e-01    -  1.00e+00 1.25e-01f  4
  62  2.7567284e+00 0.00e+00 3.82e-02  -3.8 8.14e-02    -  1.00e+00 5.00e-01f  2
  63  2.7558073e+00 0.00e+00 3.97e-02  -3.8 3.72e-02    -  1.00e+00 1.00e+00f  1
  64  2.7553543e+00 0.00e+00 1.95e-02  -3.8 5.31e-02    -  1.00e+00 5.00e-01f  2
  65  2.7552854e+00 0.00e+00 1.34e-03  -3.8 7.08e-03    -  1.00e+00 1.00e+00f  1
  66  2.6344185e+00 0.00e+00 8.22e-03  -5.7 2.64e-01    -  1.00e+00 4.52e-01f  1
  67  2.5412033e+00 0.00e+00 2.31e-03  -5.7 2.38e-01    -  1.00e+00 6.79e-01f  1
  68  2.5229089e+00 0.00e+00 3.30e-03  -5.7 1.16e-01    -  1.00e+00 5.09e-01f  1
  69  2.5139274e+00 0.00e+00 2.45e-03  -5.7 6.19e-02    -  1.00e+00 5.68e-01f  1
iter    objective    inf_pr   inf_du lg(mu)  ||d||  lg(rg) alpha_du alpha_pr  ls
  70  2.5098872e+00 0.00e+00 1.02e-03  -5.7 2.58e-02    -  1.00e+00 7.28e-01f  1
  71  2.5086109e+00 0.00e+00 6.82e-05  -5.7 6.61e-03    -  1.00e+00 1.00e+00f  1
  72  2.5085284e+00 0.00e+00 7.75e-07  -5.7 4.89e-04    -  1.00e+00 1.00e+00f  1
  73  2.5075635e+00 0.00e+00 6.08e-04  -8.6 8.20e-03    -  1.00e+00 6.66e-01f  1
  74  2.5070956e+00 0.00e+00 1.88e-04  -8.6 6.10e-03    -  1.00e+00 8.67e-01f  1
  75  2.5069798e+00 0.00e+00 2.66e-06  -8.6 2.91e-03    -  1.00e+00 1.00e+00f  1
  76  2.5069581e+00 0.00e+00 2.30e-07  -8.6 1.20e-03    -  1.00e+00 1.00e+00f  1
  77  2.5069526e+00 0.00e+00 2.55e-08  -8.6 5.40e-04    -  1.00e+00 1.00e+00f  1
  78  2.5069514e+00 0.00e+00 1.90e-09  -8.6 1.82e-04    -  1.00e+00 1.00e+00f  1

Number of Iterations....: 78

                                   (scaled)                 (unscaled)
Objective...............:   2.5069514251137552e+00    2.5069514251137552e+00
Dual infeasibility......:   1.8984444112232768e-09    1.8984444112232768e-09
Constraint violation....:   0.0000000000000000e+00    0.0000000000000000e+00
Complementarity.........:   2.7947584532039715e-09    2.7947584532039715e-09
Overall NLP error.......:   2.7947584532039715e-09    2.7947584532039715e-09


Number of objective function evaluations             = 423
Number of objective gradient evaluations             = 79
Number of equality constraint evaluations            = 0
Number of inequality constraint evaluations          = 0
Number of equality constraint Jacobian evaluations   = 0
Number of inequality constraint Jacobian evaluations = 0
Number of Lagrangian Hessian evaluations             = 78
Total CPU secs in IPOPT (w/o function evaluations)   =      0.600
Total CPU secs in NLP function evaluations           =      0.727

EXIT: Optimal Solution Found.

 ** SUBROUTINE CUTEST_csetup: Warning. The problem has no general constraints. 
 ** Other tools may be preferable ** 

************************ CUTEst statistics ************************


 Package used            :  IPOPT
 Problem                 :  MINSURFO  
 # variables             =            5306
 # constraints           =               0
 # objective functions   =        0.5030000E+03
 # objective gradients   =        0.8000000E+02
 # objective Hessians    =        0.7900000E+02
 # Hessian-vector prdct  =        0.0000000E+00
 # constraints functions =        0.0000000E+00
 # constraints gradients =        0.0000000E+00
 # constraints Hessians  =        0.0000000E+00
 Exit code               =               0
 Final f                 =   0.2506951E+01
 Set up time             =            0.16 seconds
 Solve time              =            1.44 seconds


******************************************************************

System Time =       1.3190000057 s.
